102127
78,41,52,39,63,4,50,65,31,24,19,5,48,21,18,37,13,73,64,1,10,29,45,46,54,71,66,36,26,80,62,70,14,76,67,20,9,32,74,58,77,17,56,7,27,51,72,81,60,47,49,34,57,43,3,12,23,55,42,25,69,15,61,6,79,28,35,30,2,38,16,33,11,40,75,82,22,44,68,59,53,8,83
